Cars = 1..200;
Options = 1..5;
Classes = 1..24;
sequenceMinCapacity = [0, 0, 0, 0, 0];
sequenceMaxCapacity = [1, 2, 1, 2, 1];
sequenceSize = [2, 3, 3, 5, 5];
numOrdered = [58, 2, 15, 2, 6, 4, 1, 4, 21, 1, 1, 3, 15, 2, 9, 19, 9, 6, 4, 3, 2, 1, 9, 3];
classHasOption = [|false,  true, false, false, false
                  |false, false, false,  true,  true
                  |false, false, false, false,  true
                  | true,  true,  true,  true, false
                  |false,  true, false, false,  true
                  |false,  true,  true,  true, false
                  | true, false,  true, false,  true
                  | true,  true, false,  true, false
                  |false, false, false,  true, false
                  | true,  true, false,  true,  true
                  |false, false,  true,  true,  true
                  | true, false,  true, false, false
                  |false, false,  true, false, false
                  | true,  true, false, false,  true
                  | true,  true, false, false, false
                  | true, false, false, false, false
                  |false,  true,  true, false, false
                  | true,  true,  true, false, false
                  | true, false, false,  true, false
                  |false, false,  true,  true, false
                  | true, false,  true,  true, false
                  |false,  true, false,  true,  true
                  |false,  true, false, false, false
                  | true, false, false, false,  true|];
optionOrdering = [5, 3, 1, 2, 4];
